p cnf 6 27
-3 0
-3 0
4 5 0
1 0
-3 0
2 -6 -3 0
-6 -1 0
-6 -4 4 0
-6 0
1 -4 5 6 0
-1 0
1 -2 0
2 -5 -4 6 0
6 0
-6 4 6 -2 0
-3 -1 0
3 4 -5 0
3 4 6 0
1 -4 4 -1 0
4 0
5 -2 0
-5 -4 0
1 -6 4 0
-3 0
2 0
5 0
-5 0
